
<<< setup

Tried aggregator 1 time.
LP Presolve eliminated 109 rows and 73 columns.
Reduced LP has 3 rows, 23 columns, and 23 nonzeros.
Presolve time = 0.00 sec. (0.04 ticks)

Iteration log . . .
Iteration:     1   Dual objective     =          1222.747726
main returns 0

<<< main


<<< done

